Instance name:    lr102.txt
Authors:          PDPTW Solver
Date:             2026-01-15
Reference:        LNS with SA/RTR
Solution: 0;17;1490.176;60.00 s
Route 1 :  94 96 59 102 99 6
Route 2 :  50 33 30 51 9 66 108 1
Route 3 :  27 101 69 76 79 68
Route 4 :  95 42 15 41 75 56 74 21
Route 5 :  39 23 67 110 55 4 25 26
Route 6 :  28 29 78 34 35 3 106 77
Route 7 :  52 7 11 19 49 48 105 82
Route 8 :  92 98 85 16 86 91 100 37
Route 9 :  83 45 61 84 5 60 107 89
Route 10 :  14 44 38 43 2 58
Route 11 :  62 88 8 46 17 93
Route 12 :  63 64 90 10 109 31
Route 13 :  65 71 81 20 32 70
Route 14 :  73 22 103 72 54 24 80 12
Route 15 :  36 104 47 18
Route 16 :  40 53
Route 17 :  87 57 97 13
